20 200 798
1 1 0.45865
1 6 0.5297
1 7 0.0668422
1 14 0.328234
1 19 0.884707
1 23 0.897656
1 24 0.504523
1 27 0.0737491
1 31 0.770205
1 32 0.688455
1 42 0.571655
1 43 0.49848
1 48 0.274588
1 56 0.845576
1 58 0.408767
1 62 0.629269
1 68 0.410313
1 70 0.365339
1 71 0.455307
1 91 0.524987
1 92 0.488943
1 96 0.989362
1 102 0.61635
1 103 0.727335
1 108 0.629572
1 116 0.983236
1 119 0.157731
1 121 0.634717
1 127 0.526123
1 130 0.860226
1 139 0.253922
1 147 0.343818
1 149 0.642979
1 154 0.70695
1 159 0.0799169
1 162 0.518478
1 170 0.77588
1 171 0.160274
1 175 0.833682
1 179 0.0293555
1 183 0.188276
1 185 0.954028
1 195 0.431908
1 199 0.769437
2 4 0.221667
2 8 0.159758
2 12 0.721872
2 13 0.519175
2 14 0.97718
2 17 0.939725
2 19 0.160083
2 20 0.368562
2 38 0.664689
2 39 0.134039
2 47 0.767065
2 50 0.706461
2 56 0.0316388
2 63 0.639523
2 68 0.343613
2 69 0.022405
2 73 0.345872
2 74 0.221656
2 76 0.762344
2 77 0.925503
2 82 0.57436
2 90 0.522063
2 91 0.107181
2 112 0.702471
2 113 0.0998656
2 122 0.149251
2 126 0.897657
2 128 0.0314038
2 136 0.718919
2 137 0.87906
2 138 0.416796
2 146 0.477641
2 152 0.483873
2 155 0.080322
2 158 0.196307
2 163 0.995401
2 172 0.666856
2 181 0.665973
2 188 0.566183
2 195 0.595927
2 197 0.833378
2 199 0.194679
3 9 0.836375
3 16 0.835997
3 20 0.676065
3 22 0.855082
3 24 0.279493
3 25 0.897245
3 39 0.501854
3 41 0.668904
3 44 0.648075
3 46 0.360967
3 49 0.16911
3 56 0.0731837
3 58 0.773202
3 68 0.79114
3 69 0.114529
3 76 0.94207
3 88 0.133293
3 89 0.750525
3 94 0.944193
3 95 0.141179
3 98 0.812305
3 99 0.974467
3 111 0.207749
3 113 0.137716
3 128 0.689134
3 130 0.192647
3 135 0.346431
3 138 0.386913
3 139 0.765532
3 143 0.542825
3 148 0.523785
3 158 0.343489
3 159 0.423845
3 162 0.418166
3 166 0.110132
3 168 0.059347
3 175 0.283333
3 177 0.949394
3 180 0.759196
3 183 0.920936
3 184 0.178152
3 188 0.445121
3 192 0.109083
3 195 0.886352
4 1 0.380426
4 9 0.78213
4 13 0.455199
4 14 0.409058
4 15 0.985431
4 20 0.0782141
4 24 0.10087
4 26 0.116442
4 41 0.863361
4 46 0.765209
4 47 0.375437
4 48 0.596947
4 57 0.282828
4 82 0.0730384
4 87 0.387383
4 90 0.80831
4 91 0.648154
4 92 0.378955
4 100 0.499835
4 101 0.172927
4 103 0.245427
4 114 0.130099
4 121 0.681656
4 123 0.197465
4 125 0.247026
4 146 0.0591972
4 158 0.396488
4 164 0.787707
4 165 0.841116
4 186 0.130178
4 190 0.59878
4 191 0.202964
5 4 0.435772
5 8 0.0482647
5 15 0.530931
5 21 0.487712
5 23 0.310328
5 24 0.906707
5 29 0.307525
5 31 0.0652273
5 36 0.565461
5 39 0.0124615
5 49 0.757572
5 51 0.0346696
5 52 0.947031
5 57 0.644286
5 61 0.813234
5 69 0.30414
5 72 0.234011
5 78 0.138688
5 80 0.275584
5 81 0.782175
5 83 0.626824
5 88 0.316178
5 89 0.883811
5 95 0.591894
5 98 0.714764
5 99 0.185877
5 101 0.344397
5 108 0.257187
5 109 0.483723
5 113 0.22577
5 116 0.893645
5 120 0.244023
5 130 0.195004
5 136 0.171681
5 139 0.801325
5 142 0.109146
5 146 0.268008
5 149 0.515791
5 154 0.104408
5 157 0.0968658
5 158 0.71328
5 162 0.375871
5 165 0.641672
5 169 0.483427
5 170 0.12307
5 171 0.134091
5 175 0.154378
5 177 0.343297
5 187 0.559622
5 190 0.0511765
5 191 0.793975
5 196 0.146664
5 200 0.699001
6 1 0.12716
6 8 0.235599
6 9 0.876697
6 10 0.936927
6 13 0.162713
6 19 0.340833
6 30 0.566128
6 32 0.719641
6 34 0.69111
6 37 0.466351
6 41 0.81746
6 47 0.942107
6 52 0.902252
6 62 0.100432
6 67 0.743836
6 71 0.362883
6 72 0.264646
6 77 0.0705907
6 78 0.972477
6 91 0.220639
6 92 0.682496
6 96 0.156116
6 97 0.619122
6 100 0.520889
6 108 0.327499
6 114 0.143851
6 123 0.771319
6 125 0.763549
6 128 0.858116
6 133 0.194652
6 136 0.981169
6 145 0.866342
6 148 0.172206
6 151 0.03166
6 153 0.610731
6 157 0.107314
6 159 0.128038
6 162 0.232868
6 163 0.0683144
6 166 0.907386
6 172 0.00790594
6 178 0.901877
6 181 0.890322
6 184 0.861275
6 187 0.166352
6 196 0.430754
7 10 0.782289
7 11 0.145493
7 15 0.656879
7 16 0.778219
7 18 0.593987
7 21 0.487855
7 25 0.92389
7 30 0.718541
7 32 0.0586726
7 41 0.0466009
7 54 0.553802
7 58 0.753316
7 60 0.452756
7 70 0.0144928
7 72 0.90962
7 79 0.19875
7 95 0.433937
7 99 0.945025
7 102 0.367183
7 104 0.0959763
7 108 0.454107
7 111 0.692031
7 113 0.811201
7 118 0.913758
7 126 0.353425
7 131 0.491754
7 147 0.684561
7 151 0.482199
7 152 0.404797
7 155 0.400283
7 159 0.47602
7 161 0.380451
7 163 0.0596544
7 168 0.21557
7 176 0.439634
7 179 0.81604
7 181 0.267695
8 7 0.820126
8 24 0.411825
8 31 0.713588
8 32 0.788174
8 37 0.992865
8 50 0.11062
8 65 0.569453
8 71 0.14603
8 78 0.865555
8 87 0.533905
8 95 0.535025
8 106 0.352666
8 110 0.386767
8 113 0.819157
8 117 0.175458
8 118 0.669705
8 123 0.466669
8 129 0.153777
8 133 0.500956
8 134 0.448233
8 135 0.612816
8 152 0.650934
8 161 0.684852
8 167 0.487276
8 175 0.476308
8 181 0.143298
8 183 0.60611
8 184 0.0560196
8 187 0.755784
8 192 0.45101
8 193 0.769987
8 198 0.612752
9 3 0.100882
9 5 0.0516147
9 6 0.357565
9 8 0.980367
9 22 0.821438
9 25 0.399252
9 36 0.515115
9 39 0.812413
9 45 0.730678
9 52 0.367192
9 60 0.573295
9 62 0.412172
9 63 0.434212
9 65 0.525031
9 66 0.194513
9 67 0.703405
9 68 0.773571
9 72 0.110343
9 78 0.547478
9 90 0.0860302
9 93 0.461016
9 97 0.29288
9 102 0.773447
9 104 0.629866
9 112 0.448649
9 143 0.880278
9 147 0.208892
9 149 0.947495
9 152 0.726908
9 154 0.953985
9 164 0.225579
9 167 0.485936
9 174 0.804813
9 178 0.942099
9 181 0.764297
9 183 0.564537
9 191 0.238571
9 200 0.293181
10 8 0.612789
10 13 0.0790915
10 16 0.92957
10 17 0.298357
10 18 0.978219
10 29 0.735437
10 32 0.917344
10 46 0.984673
10 48 0.956831
10 49 0.434999
10 57 0.370312
10 60 0.0526487
10 68 0.0845912
10 71 0.591209
10 78 0.481407
10 79 0.870323
10 80 0.847524
10 83 0.735925
10 86 0.584218
10 89 0.975761
10 92 0.67934
10 99 0.782165
10 104 0.872735
10 113 0.479531
10 117 0.00155961
10 120 0.433406
10 123 0.837924
10 124 0.160849
10 125 0.68211
10 129 0.668174
10 137 0.51477
10 140 0.983881
10 146 0.618845
10 153 0.49228
10 166 0.181561
10 167 0.411338
10 174 0.25574
10 175 0.814627
10 192 0.61984
10 200 0.676582
11 5 0.0457679
11 14 0.737261
11 16 0.34474
11 22 0.0383465
11 29 0.217737
11 30 0.774702
11 44 0.959656
11 46 0.713029
11 48 0.541516
11 71 0.769979
11 86 0.2296
11 92 0.728365
11 96 0.225189
11 101 0.197738
11 105 0.0710846
11 107 0.216644
11 109 0.323852
11 116 0.780053
11 122 0.602515
11 125 0.292066
11 126 0.411221
11 133 0.814583
11 141 0.303003
11 145 0.391544
11 150 0.00439822
11 151 0.98508
11 153 0.067372
11 154 0.937427
11 156 0.41706
11 160 0.180017
11 163 0.411628
11 164 0.76067
11 168 0.86045
11 174 0.705402
11 176 0.849853
11 179 0.653936
11 180 0.0999214
11 191 0.91632
11 192 0.672234
11 196 0.690755
11 197 0.90712
12 1 0.418488
12 3 0.0404727
12 5 0.834317
12 8 0.221612
12 12 0.660227
12 16 0.565083
12 17 0.463286
12 19 0.867367
12 31 0.242507
12 34 0.606107
12 38 0.0570476
12 46 0.20925
12 50 0.95159
12 54 0.236217
12 55 0.0205232
12 72 0.00102171
12 76 0.0952198
12 77 0.978857
12 80 0.189145
12 81 0.173261
12 87 0.865487
12 92 0.565183
12 98 0.690311
12 102 0.764538
12 113 0.0645855
12 120 0.692173
12 121 0.629126
12 131 0.104793
12 135 0.498205
12 136 0.119551
12 144 0.302743
12 149 0.416894
12 153 0.869333
12 169 0.679952
12 172 0.0147158
12 182 0.386154
12 188 0.488379
12 192 0.513156
12 197 0.485623
13 14 0.8038
13 17 0.163007
13 19 0.671873
13 22 0.524983
13 25 0.177548
13 31 0.250018
13 35 0.571682
13 40 0.130017
13 42 0.0592362
13 47 0.692129
13 58 0.208501
13 68 0.709278
13 71 0.541489
13 81 0.713063
13 82 0.520072
13 87 0.804087
13 92 0.346943
13 97 0.946092
13 102 0.50889
13 104 0.860525
13 106 0.942885
13 115 0.630424
13 131 0.603338
13 132 0.604863
13 137 0.957836
13 142 0.772044
13 148 0.991998
13 151 0.601459
13 153 0.287405
13 155 0.432668
13 157 0.581801
13 163 0.792227
13 164 0.412254
13 172 0.380913
13 175 0.615977
13 181 0.946606
13 190 0.298817
13 191 0.778086
13 193 0.377473
14 3 0.196581
14 5 0.0797623
14 11 0.962743
14 18 0.492443
14 34 0.741731
14 37 0.30433
14 64 0.550045
14 65 0.786423
14 66 0.355234
14 70 0.667575
14 75 0.295067
14 82 0.799901
14 85 0.825853
14 94 0.61627
14 98 0.825592
14 105 0.52702
14 106 0.388015
14 118 0.681278
14 132 0.506167
14 145 0.710758
14 148 0.613858
14 158 0.900867
14 166 0.089623
14 169 0.818072
14 173 0.417647
14 174 0.933935
14 180 0.954546
14 186 0.460115
14 187 0.927805
15 16 0.96942
15 20 0.0265912
15 23 0.390233
15 25 0.16342
15 31 0.707853
15 32 0.206381
15 34 0.505203
15 37 0.141993
15 46 0.836296
15 49 0.850063
15 53 0.16024
15 57 0.82013
15 61 0.189107
15 62 0.630485
15 68 0.0776374
15 73 0.317428
15 75 0.565643
15 76 0.361439
15 85 0.404617
15 92 0.132636
15 98 0.0615848
15 102 0.894119
15 103 0.750227
15 120 0.687133
15 125 0.0516458
15 133 0.970538
15 140 0.242887
15 152 0.112037
15 155 0.347038
15 158 0.112272
15 162 0.192662
15 163 0.440943
15 164 0.0864745
15 165 0.650125
15 167 0.0226548
15 171 0.227539
15 175 0.264859
15 180 0.0599023
15 189 0.241134
15 192 0.834553
15 196 0.54083
15 197 0.399829
15 200 0.570333
16 9 0.86224
16 12 0.554271
16 27 0.109558
16 28 0.380991
16 36 0.228576
16 39 0.173388
16 41 0.747257
16 45 0.580398
16 47 0.639382
16 50 0.0577796
16 57 0.942654
16 63 0.238526
16 64 0.950103
16 68 0.452877
16 71 0.316087
16 74 0.431739
16 78 0.557999
16 81 0.504102
16 89 0.0963838
16 98 0.656681
16 100 0.230764
16 102 0.798468
16 111 0.309018
16 114 0.101426
16 117 0.657648
16 125 0.257168
16 141 0.642866
16 144 0.455039
16 147 0.728995
16 153 0.776394
16 155 0.888481
16 161 0.813843
16 163 0.909518
16 167 0.833545
16 172 0.265715
16 178 0.188894
16 193 9.2603e-005
16 194 0.999835
16 195 0.753055
16 198 0.299247
17 3 0.940519
17 16 0.287903
17 18 0.44094
17 19 0.179482
17 21 0.0441242
17 30 0.384619
17 33 0.0348318
17 45 0.563516
17 47 0.998526
17 50 0.557944
17 52 0.979761
17 53 0.957337
17 59 0.174558
17 70 0.841791
17 71 0.409157
17 86 0.714346
17 87 0.0161394
17 92 0.238379
17 103 0.667999
17 104 0.770755
17 107 0.343586
17 112 0.446913
17 113 0.0533173
17 115 0.448908
17 116 0.742283
17 130 0.678113
17 134 0.179118
17 144 0.353181
17 152 0.538932
17 153 0.952229
17 155 0.601913
17 156 0.693045
17 158 0.159575
17 159 0.376423
17 166 0.0777678
17 175 0.288375
17 176 0.210829
17 183 0.816885
17 190 0.994863
17 196 0.173286
17 200 0.164209
18 2 0.0549535
18 4 0.619603
18 8 0.00880927
18 12 0.552578
18 14 0.777969
18 26 0.415282
18 32 0.088268
18 43 0.61743
18 57 0.749232
18 61 0.289749
18 62 0.596201
18 76 0.754585
18 77 0.237783
18 80 0.360495
18 84 0.892529
18 91 0.346561
18 92 0.891227
18 93 0.360683
18 97 0.547918
18 99 0.513059
18 100 0.608881
18 118 0.677635
18 122 0.171245
18 126 0.694148
18 134 0.0306437
18 138 0.746221
18 139 0.343352
18 141 0.491201
18 142 0.556056
18 152 0.16157
18 169 0.578022
18 181 0.167233
18 183 0.0867626
18 186 0.34326
18 196 0.849924
19 16 0.733652
19 22 0.0691219
19 24 0.697578
19 26 0.597066
19 33 0.512615
19 35 0.988376
19 36 0.341894
19 40 0.956352
19 41 0.183017
19 55 0.798299
19 57 0.606745
19 60 0.719098
19 64 0.127639
19 67 0.289803
19 71 0.175971
19 78 0.58337
19 84 0.525604
19 86 0.383464
19 88 0.371359
19 95 0.488275
19 97 0.326781
19 105 0.194194
19 109 0.930243
19 113 0.671658
19 120 0.313894
19 124 0.113733
19 126 0.989652
19 131 0.0586832
19 138 0.18253
19 142 0.0275149
19 145 0.259642
19 146 0.670644
19 148 0.871811
19 152 0.552684
19 162 0.982008
19 163 0.848666
19 174 0.312661
19 185 0.950591
19 190 0.369888
19 194 0.654658
19 196 0.99221
20 5 0.0106588
20 7 0.802906
20 10 0.719759
20 12 0.761495
20 13 0.276824
20 15 0.8318
20 16 0.767446
20 17 0.754125
20 18 0.548101
20 28 0.527825
20 31 0.76344
20 39 0.0702868
20 45 0.969766
20 47 0.903663
20 48 0.366124
20 50 0.939736
20 61 0.589929
20 64 0.0270989
20 70 0.364577
20 72 0.235994
20 92 0.532822
20 95 0.338814
20 99 0.220527
20 107 0.718768
20 108 0.811474
20 113 0.017075
20 123 0.665559
20 125 0.524719
20 130 0.368611
20 133 0.00968555
20 134 0.727399
20 144 0.0366288
20 145 0.932252
20 148 0.992302
20 149 0.753276
20 153 0.165998
20 173 0.57329
20 175 0.322575
20 176 0.529292
20 190 0.684499
20 197 0.259985
20 200 0.713564